NAME : ftv35.1595.tour
COMMENT : Cost = 0_1595
COMMENT : Found by LKH [Keld Helsgaun] Fri Jan 13 17:16:52 2017
TYPE : TOUR
DIMENSION : 40
TOUR_SECTION
1
14
38
27
26
25
20
34
19
18
11
10
35
9
12
13
6
8
7
5
33
31
28
24
21
22
23
29
30
32
36
3
4
39
16
15
40
17
37
2
-1
EOF
